words_hard_train/8891.qaiger
aag 124 24 0 1 100
2
4
8
12
16
20
28
30
34
36
48
50
62
64
76
78
90
92
104
106
186
214
216
224
248
6 3 5
10 6 9
14 10 13
18 14 17
22 19 20
24 18 21
26 23 25
32 28 30
38 35 37
40 34 36
42 39 41
44 32 42
46 45 41
52 49 51
54 48 50
56 53 55
58 47 56
60 59 55
66 63 65
68 62 64
70 67 69
72 61 70
74 73 69
80 77 79
82 76 78
84 81 83
86 75 84
88 87 83
94 91 93
96 90 92
98 95 97
100 89 98
102 101 97
108 105 107
110 104 106
112 109 111
114 102 113
116 103 112
118 115 117
120 27 119
122 26 118
124 121 123
126 15 16
128 127 19
130 88 99
132 131 101
134 128 133
136 7 8
138 137 11
140 60 71
142 141 73
144 139 142
146 2 4
148 147 7
150 46 57
152 151 59
154 149 152
156 145 155
158 129 132
160 156 159
162 135 160
164 148 153
166 33 43
168 167 45
170 169 2
172 165 171
174 168 3
176 138 143
178 175 177
180 172 178
182 29 31
184 183 33
188 184 187
190 185 186
192 189 191
194 180 193
196 11 12
198 197 15
200 74 85
202 201 87
204 199 202
206 198 203
208 205 207
210 194 208
212 162 210
218 215 216
220 214 217
222 219 221
226 222 225
228 223 224
230 227 229
232 231 24
234 230 25
236 233 235
238 117 111
240 237 238
242 236 239
244 241 243
246 212 245
248 125 246
i0 1 x2[6]
i1 1 x2[5]
i2 1 x2[4]
i3 1 x2[3]
i4 1 x2[2]
i5 1 x2[1]
i6 1 x1[0]
i7 2 y1[0]
i8 1 x1[1]
i9 2 y1[1]
i10 1 x1[2]
i11 2 y1[2]
i12 1 x1[3]
i13 2 y1[3]
i14 1 x1[4]
i15 2 y1[4]
i16 1 x1[5]
i17 2 y1[5]
i18 1 x1[6]
i19 2 y1[6]
i20 1 x2[7]
i21 1 x2[0]
i22 1 x1[7]
i23 2 y1[7]
o0 bool[0]
c
simplified
  ==
    add
      1 x1
      2 y1
    subtract
      1
      reverse
        1 x2
