words_hard_train/8891.qaiger.qdimacs
p cnf 124 301
a 1 2 4 6 38 8 10 107 108 45 14 17 52 24 93 31 0
e 3 5 7 9 11 12 13 15 16 18 19 20 21 22 23 25 26 27 28 29 30 32 33 34 35 36 37 39 40 41 42 43 44 46 47 48 49 50 51 53 54 55 56 57 58 59 60 61 62 63 64 65 66 67 68 69 70 71 72 73 74 75 76 77 78 79 80 81 82 83 84 85 86 87 88 89 90 91 92 94 95 96 97 98 99 100 101 102 103 104 105 106 109 110 111 112 113 114 115 116 117 118 119 120 121 122 123 124 0
1 2 3 0
-1 -3 0
-2 -3 0
-3 4 5 0
3 -5 0
-4 -5 0
-5 6 7 0
5 -7 0
-6 -7 0
-7 8 9 0
7 -9 0
-8 -9 0
9 -10 11 0
-9 -11 0
10 -11 0
-9 10 12 0
9 -12 0
-10 -12 0
11 12 13 0
-11 -13 0
-12 -13 0
-14 -15 16 0
14 -16 0
15 -16 0
17 18 19 0
-17 -19 0
-18 -19 0
-17 -18 20 0
17 -20 0
18 -20 0
19 20 21 0
-19 -21 0
-20 -21 0
-16 -21 22 0
16 -22 0
21 -22 0
22 20 23 0
-22 -23 0
-20 -23 0
24 25 26 0
-24 -26 0
-25 -26 0
-24 -25 27 0
24 -27 0
25 -27 0
26 27 28 0
-26 -28 0
-27 -28 0
23 -28 29 0
-23 -29 0
28 -29 0
29 27 30 0
-29 -30 0
-27 -30 0
31 32 33 0
-31 -33 0
-32 -33 0
-31 -32 34 0
31 -34 0
32 -34 0
33 34 35 0
-33 -35 0
-34 -35 0
30 -35 36 0
-30 -36 0
35 -36 0
36 34 37 0
-36 -37 0
-34 -37 0
38 39 40 0
-38 -40 0
-39 -40 0
-38 -39 41 0
38 -41 0
39 -41 0
40 41 42 0
-40 -42 0
-41 -42 0
37 -42 43 0
-37 -43 0
42 -43 0
43 41 44 0
-43 -44 0
-41 -44 0
45 46 47 0
-45 -47 0
-46 -47 0
-45 -46 48 0
45 -48 0
46 -48 0
47 48 49 0
-47 -49 0
-48 -49 0
44 -49 50 0
-44 -50 0
49 -50 0
50 48 51 0
-50 -51 0
-48 -51 0
52 53 54 0
-52 -54 0
-53 -54 0
-52 -53 55 0
52 -55 0
53 -55 0
54 55 56 0
-54 -56 0
-55 -56 0
-51 56 57 0
51 -57 0
-56 -57 0
51 -56 58 0
-51 -58 0
56 -58 0
57 58 59 0
-57 -59 0
-58 -59 0
13 59 60 0
-13 -60 0
-59 -60 0
-13 -59 61 0
13 -61 0
59 -61 0
60 61 62 0
-60 -62 0
-61 -62 0
7 -8 63 0
-7 -63 0
8 -63 0
63 9 64 0
-63 -64 0
-9 -64 0
-44 49 65 0
44 -65 0
-49 -65 0
65 50 66 0
-65 -66 0
-50 -66 0
-64 66 67 0
64 -67 0
-66 -67 0
3 -4 68 0
-3 -68 0
4 -68 0
68 5 69 0
-68 -69 0
-5 -69 0
-30 35 70 0
30 -70 0
-35 -70 0
70 36 71 0
-70 -71 0
-36 -71 0
69 -71 72 0
-69 -72 0
71 -72 0
-1 -2 73 0
1 -73 0
2 -73 0
73 3 74 0
-73 -74 0
-3 -74 0
-23 28 75 0
23 -75 0
-28 -75 0
75 29 76 0
-75 -76 0
-29 -76 0
74 -76 77 0
-74 -77 0
76 -77 0
72 77 78 0
-72 -78 0
-77 -78 0
64 -66 79 0
-64 -79 0
66 -79 0
-78 79 80 0
78 -80 0
-79 -80 0
67 -80 81 0
-67 -81 0
80 -81 0
-74 76 82 0
74 -82 0
-76 -82 0
16 21 83 0
-16 -83 0
-21 -83 0
83 22 84 0
-83 -84 0
-22 -84 0
84 -1 85 0
-84 -85 0
1 -85 0
82 85 86 0
-82 -86 0
-85 -86 0
-84 1 87 0
84 -87 0
-1 -87 0
-69 71 88 0
69 -88 0
-71 -88 0
87 88 89 0
-87 -89 0
-88 -89 0
-86 -89 90 0
86 -90 0
89 -90 0
14 15 91 0
-14 -91 0
-15 -91 0
91 16 92 0
-91 -92 0
-16 -92 0
-92 93 94 0
92 -94 0
-93 -94 0
92 -93 95 0
-92 -95 0
93 -95 0
94 95 96 0
-94 -96 0
-95 -96 0
-90 96 97 0
90 -97 0
-96 -97 0
5 -6 98 0
-5 -98 0
6 -98 0
98 7 99 0
-98 -99 0
-7 -99 0
-37 42 100 0
37 -100 0
-42 -100 0
100 43 101 0
-100 -101 0
-43 -101 0
99 -101 102 0
-99 -102 0
101 -102 0
-99 101 103 0
99 -103 0
-101 -103 0
102 103 104 0
-102 -104 0
-103 -104 0
-97 -104 105 0
97 -105 0
104 -105 0
-81 -105 106 0
81 -106 0
105 -106 0
107 -108 109 0
-107 -109 0
108 -109 0
-107 108 110 0
107 -110 0
-108 -110 0
109 110 111 0
-109 -111 0
-110 -111 0
-111 112 113 0
111 -113 0
-112 -113 0
111 -112 114 0
-111 -114 0
112 -114 0
113 114 115 0
-113 -115 0
-114 -115 0
115 -12 116 0
-115 -116 0
12 -116 0
-115 12 117 0
115 -117 0
-12 -117 0
116 117 118 0
-116 -118 0
-117 -118 0
58 55 119 0
-58 -119 0
-55 -119 0
118 -119 120 0
-118 -120 0
119 -120 0
-118 119 121 0
118 -121 0
-119 -121 0
120 121 122 0
-120 -122 0
-121 -122 0
-106 122 123 0
106 -123 0
-122 -123 0
62 -123 124 0
-62 -124 0
123 -124 0
124 0
